sat
(
  (define-fun VM1Type () Int
    341)
  (define-fun VM5Type () Int
    0)
  (define-fun C2_VM2 () Int
    1)
  (define-fun PriceProv2 () Int
    210)
  (define-fun C1_VM3 () Int
    0)
  (define-fun PriceProv6 () Int
    420)
  (define-fun StorageProv5 () Int
    3001)
  (define-fun C2_VM3 () Int
    0)
  (define-fun C5_VM1 () Int
    0)
  (define-fun MemProv6 () Int
    15000)
  (define-fun PriceProv4 () Int
    210)
  (define-fun C3_VM3 () Int
    0)
  (define-fun C1_VM6 () Int
    0)
  (define-fun C3_VM1 () Int
    0)
  (define-fun StorageProv3 () Int
    2000)
  (define-fun StorageProv4 () Int
    2000)
  (define-fun C5_VM4 () Int
    1)
  (define-fun C3_VM6 () Int
    1)
  (define-fun StorageProv2 () Int
    2000)
  (define-fun PriceProv1 () Int
    210)
  (define-fun PriceProv3 () Int
    532)
  (define-fun ProcProv5 () Int
    7)
  (define-fun C5_VM6 () Int
    1)
  (define-fun C1_VM4 () Int
    0)
  (define-fun StorageProv6 () Int
    2000)
  (define-fun C1_VM2 () Int
    0)
  (define-fun C4_VM3 () Int
    1)
  (define-fun ProcProv6 () Int
    8)
  (define-fun PriceProv5 () Int
    0)
  (define-fun StorageProv1 () Int
    2000)
  (define-fun C4_VM5 () Int
    0)
  (define-fun ProcProv3 () Int
    8)
  (define-fun VM2Type () Int
    341)
  (define-fun C5_VM3 () Int
    0)
  (define-fun ProcProv2 () Int
    4)
  (define-fun VM4Type () Int
    341)
  (define-fun C2_VM6 () Int
    0)
  (define-fun C3_VM5 () Int
    0)
  (define-fun MemProv2 () Int
    7500)
  (define-fun ProcProv4 () Int
    4)
  (define-fun MemProv5 () Int
    22499)
  (define-fun C3_VM2 () Int
    0)
  (define-fun C5_VM2 () Int
    1)
  (define-fun C5_VM5 () Int
    0)
  (define-fun C2_VM1 () Int
    0)
  (define-fun MemProv1 () Int
    7500)
  (define-fun C3_VM4 () Int
    0)
  (define-fun MemProv4 () Int
    7500)
  (define-fun C1_VM5 () Int
    0)
  (define-fun VM3Type () Int
    252)
  (define-fun MemProv3 () Int
    30000)
  (define-fun VM6Type () Int
    278)
  (define-fun C4_VM2 () Int
    0)
  (define-fun C4_VM4 () Int
    0)
  (define-fun C4_VM1 () Int
    0)
  (define-fun C2_VM4 () Int
    1)
  (define-fun C4_VM6 () Int
    0)
  (define-fun ProcProv1 () Int
    4)
  (define-fun C2_VM5 () Int
    0)
  (define-fun C1_VM1 () Int
    1)
)
(objectives
 ( 17)
 ((+ 0 PriceProv1 PriceProv2 PriceProv3 PriceProv4 PriceProv5 PriceProv6) 1582)
)
(:added-eqs                   169775
 :arith-eq-adapter            27752
 :arith-bound-propagations-lp 234121
 :arith-conflicts             34
 :arith-diseq                 865923
 :arith-fixed-eqs             2404
 :arith-lower                 1313638
 :arith-make-feasible         30896
 :arith-max-columns           566
 :arith-max-rows              20
 :arith-upper                 436965
 :binary-propagations         1765430
 :bv-bit2core                 13582
 :bv-dynamic-diseqs           905248
 :bv->core-eq                 360
 :conflicts                   3280
 :decisions                   197518
 :del-clause                  1184989
 :final-checks                41
 :max-memory                  136.96
 :memory                      130.26
 :minimized-lits              321571
 :mk-bool-var                 69178
 :mk-clause                   1185461
 :mk-clause-binary            14595
 :num-allocs                  1639225312
 :num-checks                  42
 :pb-conflicts                123
 :pb-predicates               78
 :pb-propagations             10393
 :pb-resolves                 115
 :propagations                5093712
 :restarts                    25
 :rlimit-count                27568866
 :solve-eqs-elim-vars         1
 :solve-eqs-steps             10
 :time                        2.19
 :total-time                  2.20)
